webassembly/ejemplos_dzn/11/folder11_json_19.dzn
TERM = { '.', 's(2)', 'in_1', 'local_0', 'local_1', 'in_2', 's(1)', 's(0)', 's(3)', 'in_0'};
null = '.';
s = 11;
n = 8;
ndeps = 1;
max_registers_sz = 4;
NR = 1;
registers = [|'local_0', 's(2)'|];
dependencies = [|'i32.store8_0', 'i32.load_1'|];
GET_ENUM = { GET1, GET2, GET3, GET4, GET5};
SET_ENUM = { SET1, SET2, SET3, SET4, SET5};
TEE_ENUM = { TEE1, TEE2, TEE3, TEE4, TEE5};
N = 6;
OP = { 'i32.add_0', 'i32.const_0', 'i32.add_1', 'i32.store8_0', 'i32.load_1', 'local.get_0' };
in_ops = [2, 0, 2, 2, 1, 0 ];
out_ops = [1, 1, 1, 0, 1, 1 ];
in1 = ['local_1', '.', 's(1)', 'in_0', 'in_2', '.' ];
in2 = ['local_1', '.', 's(3)', 'in_1', '.', '.' ];
in3 = ['.', '.', '.', '.', '.', '.' ];
out1 = ['s(1)', 's(3)', 's(2)', '.', 's(0)', 'local_1' ];
out2 = ['.', '.', '.', '.', '.', '.' ];
out3 = ['.', '.', '.', '.', '.', '.' ];
comm = [true, false, true, false, false, false ];
gas = [1, 1, 1, 1, 1, 1 ];
sz = [1, 1, 1, 1, 1, 1 ];
stor = [false, false, false, true, false, false ];
lb = [ 1, 1, 1, 1, 1, 1 ];
ub = [ 11, 11, 11, 11, 11, 11 ];
startstack = [ 'in_0', 'in_1', 'in_2', null, null, null, null, null ];
endstack = [ 's(2)', 's(2)', null, null, null, null, null, null ];
